Ce4 O8
1.0
   5.4674503477652081    0.0000000000000000    0.0000000000000003
  -0.0000000000000003    5.4674503477652081    0.0000000000000003
   0.0000000000000000    0.0000000000000000    5.4674503477652081
Ce O
4 8
direct
   0.0000000000000000    0.0000000000000000    0.0000000000000000 Ce4+
   0.0000000000000000    0.5000000000000000    0.5000000000000000 Ce4+
   0.5000000000000000    0.0000000000000000    0.5000000000000000 Ce4+
   0.5000000000000000    0.5000000000000000    0.0000000000000000 Ce4+
   0.2500000000000000    0.7500000000000000    0.7500000000000000 O2-
   0.7500000000000000    0.2500000000000000    0.2500000000000000 O2-
   0.2500000000000000    0.2500000000000000    0.2500000000000000 O2-
   0.7500000000000000    0.7500000000000000    0.7500000000000000 O2-
   0.7500000000000000    0.7500000000000000    0.2500000000000000 O2-
   0.2500000000000000    0.2500000000000000    0.7500000000000000 O2-
   0.7500000000000000    0.2500000000000000    0.7500000000000000 O2-
   0.2500000000000000    0.7500000000000000    0.2500000000000000 O2-
