log ${OUTDIR}/logs/log.lammps
echo both
units metal
atom_style atomic
region box block 0 2 0 2 0 2
create_box 1 box
create_atoms 1 single 1 1 1
pair_style lj/cut 2.5
pair_coeff 1 1 1.0 1.0 2.5
run 0
